(set-logic QF_SLIA)
(declare-fun var0 () String)
(assert (str.in_re var0 (re.++ ((_ re.loop 7 795) (re.++ (re.union (str.to_re "$Py") (re.union (str.to_re "oM") (re.union (str.to_re "tk") (str.to_re "pco")))) (re.++ (re.union (str.to_re "[5t") (re.union (str.to_re "JF") (re.union (str.to_re "G-`") (str.to_re "x)r")))) (re.++ (re.union (str.to_re "4") (re.union (str.to_re "&<u") (re.union (str.to_re "%0K") (str.to_re "+Bs")))) (re.union (str.to_re "c*") (re.union (str.to_re "#,") (re.union (str.to_re "p,") (str.to_re "Lp7")))))))) (re.++ ((_ re.loop 9 835) (re.++ (re.union (str.to_re "y") (re.union (str.to_re "Jdg") (re.union (str.to_re "N7=") (str.to_re "7Z5")))) (re.++ (re.union (str.to_re "^,") (re.union (str.to_re "V.4") (re.union (str.to_re "!j?") (str.to_re ">")))) (re.++ (re.union (str.to_re "P[F") (re.union (str.to_re "40") (re.union (str.to_re "4r") (str.to_re "&")))) (re.union (str.to_re "i5e") (re.union (str.to_re "6#'") (re.union (str.to_re "o") (str.to_re "moR")))))))) (re.++ ((_ re.loop 16 27) (re.++ (re.union (str.to_re "l};") (re.union (str.to_re "=z0") (re.union (str.to_re "7") (str.to_re "VZ}")))) (re.++ (re.union (str.to_re "N") (re.union (str.to_re "2W") (re.union (str.to_re "q]M") (str.to_re "<")))) (re.++ (re.union (str.to_re "s") (re.union (str.to_re "M[") (re.union (str.to_re "W") (str.to_re "_X")))) (re.union (str.to_re ")B") (re.union (str.to_re "C") (re.union (str.to_re "BS") (str.to_re "JB^")))))))) ((_ re.loop 3 263) (re.++ (re.union (str.to_re "`") (re.union (str.to_re "5>h") (re.union (str.to_re "S") (str.to_re "1sn")))) (re.++ (re.union (str.to_re "M7]") (re.union (str.to_re "o<") (re.union (str.to_re "@c") (str.to_re "G")))) (re.++ (re.union (str.to_re "2*") (re.union (str.to_re "];i") (re.union (str.to_re "@") (str.to_re "i")))) (re.union (str.to_re "9z") (re.union (str.to_re "]n") (re.union (str.to_re "vu]") (str.to_re "MH")))))))))))))
(assert (not (str.in_re var0 (re.++ ((_ re.loop 15 142) (re.++ (re.union (str.to_re "R") (re.union (str.to_re "I") (re.union (str.to_re "ES=") (str.to_re ":cE")))) (re.++ (re.union (str.to_re "Q.") (re.union (str.to_re "e") (re.union (str.to_re "xis") (str.to_re "Ty")))) (re.++ (re.union (str.to_re "ls") (re.union (str.to_re "3") (re.union (str.to_re "Qh") (str.to_re "J9$")))) (re.union (str.to_re "!") (re.union (str.to_re ":%$") (re.union (str.to_re "#;") (str.to_re "=")))))))) (re.++ ((_ re.loop 3 603) (re.++ (re.union (str.to_re "W5") (re.union (str.to_re "z77") (re.union (str.to_re ":<") (str.to_re "=")))) (re.++ (re.union (str.to_re "L]}") (re.union (str.to_re "v") (re.union (str.to_re "3,0") (str.to_re "v_")))) (re.++ (re.union (str.to_re "h\\") (re.union (str.to_re "Y") (re.union (str.to_re "5E|") (str.to_re "t{")))) (re.union (str.to_re "ozF") (re.union (str.to_re "EW") (re.union (str.to_re "qH=") (str.to_re "Q~")))))))) (re.++ ((_ re.loop 16 102) (re.++ (re.union (str.to_re "x3=") (re.union (str.to_re "B>") (re.union (str.to_re "_") (str.to_re "*K")))) (re.++ (re.union (str.to_re "_#") (re.union (str.to_re "-") (re.union (str.to_re "7\\") (str.to_re "7%S")))) (re.++ (re.union (str.to_re "_") (re.union (str.to_re "&'") (re.union (str.to_re "~0") (str.to_re "U>")))) (re.union (str.to_re "o") (re.union (str.to_re "y") (re.union (str.to_re "t']") (str.to_re "N&q")))))))) ((_ re.loop 17 749) (re.++ (re.union (str.to_re "md") (re.union (str.to_re "a?") (re.union (str.to_re "?#]") (str.to_re "Nw4")))) (re.++ (re.union (str.to_re "HQ") (re.union (str.to_re "tJ!") (re.union (str.to_re "}") (str.to_re "o")))) (re.++ (re.union (str.to_re "dL") (re.union (str.to_re "#C") (re.union (str.to_re "gs") (str.to_re "flE")))) (re.union (str.to_re "JT") (re.union (str.to_re "7") (re.union (str.to_re "f") (str.to_re "Ewo"))))))))))))))
(assert (not (str.in_re var0 (re.++ (re.* re.allchar) (re.++ (re.union (str.to_re "<") (re.union (str.to_re ">") (re.union (str.to_re "'") (re.union (str.to_re "\u0022") (str.to_re "&"))))) (re.* re.allchar))))))
(assert (<= 50 (str.len var0)))
(check-sat)
(get-model)
